# Objective value = 21
x0,1_1 0
x0,1_6 0
x0,1_7 1
x0,1_10 0
x0,1_11 0
x0,1_12 0
x0,1_13 0
x0,1_14 0
x0,1_16 0
x0,1_17 0
x0,1_18 0
x0,1_19 0
x0,1_24 0
x0,1_25 0
x0,1_28 0
x0,1_29 0
x0,1_30 0
x0,1_35 0
x0,1_36 0
x0,1_42 0
x0,1_49 0
x0,2_1 0
x0,2_6 0
x0,2_7 0
x0,2_10 0
x0,2_11 0
x0,2_12 0
x0,2_13 0
x0,2_14 0
x0,2_16 0
x0,2_17 0
x0,2_18 0
x0,2_19 1
x0,2_24 0
x0,2_25 0
x0,2_28 0
x0,2_29 0
x0,2_30 0
x0,2_35 0
x0,2_36 0
x0,2_42 0
x0,2_49 0
x0,3_1 0
x0,3_6 0
x0,3_7 0
x0,3_10 0
x0,3_11 0
x0,3_12 0
x0,3_13 0
x0,3_14 0
x0,3_16 0
x0,3_17 0
x0,3_18 0
x0,3_19 0
x0,3_24 0
x0,3_25 1
x0,3_28 0
x0,3_29 0
x0,3_30 0
x0,3_35 0
x0,3_36 0
x0,3_42 0
x0,3_49 0
x0,4_1 0
x0,4_6 0
x0,4_7 0
x0,4_10 0
x0,4_11 0
x0,4_12 0
x0,4_13 0
x0,4_14 0
x0,4_16 0
x0,4_17 0
x0,4_18 0
x0,4_19 0
x0,4_24 0
x0,4_25 0
x0,4_28 0
x0,4_29 0
x0,4_30 0
x0,4_35 0
x0,4_36 0
x0,4_42 0
x0,4_49 0
x0,5_1 0
x0,5_6 0
x0,5_7 0
x0,5_10 0
x0,5_11 0
x0,5_12 0
x0,5_13 0
x0,5_14 0
x0,5_16 0
x0,5_17 0
x0,5_18 0
x0,5_19 0
x0,5_24 0
x0,5_25 0
x0,5_28 0
x0,5_29 0
x0,5_30 0
x0,5_35 1
x0,5_36 0
x0,5_42 0
x0,5_49 0
x0,6_1 0
x0,6_6 0
x0,6_7 0
x0,6_10 0
x0,6_11 0
x0,6_12 0
x0,6_13 0
x0,6_14 0
x0,6_16 0
x0,6_17 0
x0,6_18 0
x0,6_19 0
x0,6_24 0
x0,6_25 0
x0,6_28 0
x0,6_29 0
x0,6_30 0
x0,6_35 0
x0,6_36 1
x0,6_42 0
x0,6_49 0
x0,7_1 0
x0,7_6 0
x0,7_7 0
x0,7_10 0
x0,7_11 0
x0,7_12 0
x0,7_13 0
x0,7_14 0
x0,7_16 0
x0,7_17 0
x0,7_18 0
x0,7_19 0
x0,7_24 0
x0,7_25 0
x0,7_28 0
x0,7_29 0
x0,7_30 0
x0,7_35 0
x0,7_36 0
x0,7_42 0
x0,7_49 1
x1,2_1 0
x1,2_6 0
x1,2_7 0
x1,2_10 0
x1,2_11 0
x1,2_12 0
x1,2_13 0
x1,2_14 0
x1,2_16 0
x1,2_17 0
x1,2_18 0
x1,2_19 0
x1,2_24 0
x1,2_25 0
x1,2_28 0
x1,2_29 0
x1,2_30 0
x1,2_35 0
x1,2_36 0
x1,2_42 0
x1,2_49 0
x1,3_1 0
x1,3_6 0
x1,3_7 0
x1,3_10 0
x1,3_11 0
x1,3_12 0
x1,3_13 0
x1,3_14 0
x1,3_16 0
x1,3_17 0
x1,3_18 1
x1,3_19 0
x1,3_24 0
x1,3_25 0
x1,3_28 0
x1,3_29 0
x1,3_30 0
x1,3_35 0
x1,3_36 0
x1,3_42 0
x1,3_49 0
x1,4_1 0
x1,4_6 0
x1,4_7 0
x1,4_10 0
x1,4_11 0
x1,4_12 0
x1,4_13 0
x1,4_14 0
x1,4_16 0
x1,4_17 0
x1,4_18 0
x1,4_19 0
x1,4_24 1
x1,4_25 0
x1,4_28 0
x1,4_29 0
x1,4_30 0
x1,4_35 0
x1,4_36 0
x1,4_42 0
x1,4_49 0
x1,5_1 0
x1,5_6 0
x1,5_7 0
x1,5_10 0
x1,5_11 0
x1,5_12 0
x1,5_13 0
x1,5_14 0
x1,5_16 0
x1,5_17 0
x1,5_18 0
x1,5_19 0
x1,5_24 0
x1,5_25 0
x1,5_28 1
x1,5_29 0
x1,5_30 0
x1,5_35 0
x1,5_36 0
x1,5_42 0
x1,5_49 0
x1,6_1 0
x1,6_6 0
x1,6_7 0
x1,6_10 0
x1,6_11 0
x1,6_12 0
x1,6_13 0
x1,6_14 0
x1,6_16 0
x1,6_17 0
x1,6_18 0
x1,6_19 0
x1,6_24 0
x1,6_25 0
x1,6_28 0
x1,6_29 1
x1,6_30 0
x1,6_35 0
x1,6_36 0
x1,6_42 0
x1,6_49 0
x1,7_1 0
x1,7_6 0
x1,7_7 0
x1,7_10 0
x1,7_11 0
x1,7_12 0
x1,7_13 0
x1,7_14 0
x1,7_16 0
x1,7_17 0
x1,7_18 0
x1,7_19 0
x1,7_24 0
x1,7_25 0
x1,7_28 0
x1,7_29 0
x1,7_30 0
x1,7_35 0
x1,7_36 0
x1,7_42 1
x1,7_49 0
x2,3_1 0
x2,3_6 1
x2,3_7 0
x2,3_10 0
x2,3_11 0
x2,3_12 0
x2,3_13 0
x2,3_14 0
x2,3_16 0
x2,3_17 0
x2,3_18 0
x2,3_19 0
x2,3_24 0
x2,3_25 0
x2,3_28 0
x2,3_29 0
x2,3_30 0
x2,3_35 0
x2,3_36 0
x2,3_42 0
x2,3_49 0
x2,4_1 0
x2,4_6 0
x2,4_7 0
x2,4_10 0
x2,4_11 0
x2,4_12 1
x2,4_13 0
x2,4_14 0
x2,4_16 0
x2,4_17 0
x2,4_18 0
x2,4_19 0
x2,4_24 0
x2,4_25 0
x2,4_28 0
x2,4_29 0
x2,4_30 0
x2,4_35 0
x2,4_36 0
x2,4_42 0
x2,4_49 0
x2,5_1 0
x2,5_6 0
x2,5_7 0
x2,5_10 0
x2,5_11 0
x2,5_12 0
x2,5_13 0
x2,5_14 0
x2,5_16 1
x2,5_17 0
x2,5_18 0
x2,5_19 0
x2,5_24 0
x2,5_25 0
x2,5_28 0
x2,5_29 0
x2,5_30 0
x2,5_35 0
x2,5_36 0
x2,5_42 0
x2,5_49 0
x2,6_1 0
x2,6_6 0
x2,6_7 0
x2,6_10 0
x2,6_11 0
x2,6_12 0
x2,6_13 0
x2,6_14 0
x2,6_16 0
x2,6_17 1
x2,6_18 0
x2,6_19 0
x2,6_24 0
x2,6_25 0
x2,6_28 0
x2,6_29 0
x2,6_30 0
x2,6_35 0
x2,6_36 0
x2,6_42 0
x2,6_49 0
x2,7_1 0
x2,7_6 0
x2,7_7 0
x2,7_10 0
x2,7_11 0
x2,7_12 0
x2,7_13 0
x2,7_14 0
x2,7_16 0
x2,7_17 0
x2,7_18 0
x2,7_19 0
x2,7_24 0
x2,7_25 0
x2,7_28 0
x2,7_29 0
x2,7_30 1
x2,7_35 0
x2,7_36 0
x2,7_42 0
x2,7_49 0
x3,4_1 0
x3,4_6 0
x3,4_7 0
x3,4_10 0
x3,4_11 0
x3,4_12 0
x3,4_13 0
x3,4_14 0
x3,4_16 0
x3,4_17 0
x3,4_18 0
x3,4_19 0
x3,4_24 0
x3,4_25 0
x3,4_28 0
x3,4_29 0
x3,4_30 0
x3,4_35 0
x3,4_36 0
x3,4_42 0
x3,4_49 0
x3,5_1 0
x3,5_6 0
x3,5_7 0
x3,5_10 1
x3,5_11 0
x3,5_12 0
x3,5_13 0
x3,5_14 0
x3,5_16 0
x3,5_17 0
x3,5_18 0
x3,5_19 0
x3,5_24 0
x3,5_25 0
x3,5_28 0
x3,5_29 0
x3,5_30 0
x3,5_35 0
x3,5_36 0
x3,5_42 0
x3,5_49 0
x3,6_1 0
x3,6_6 0
x3,6_7 0
x3,6_10 0
x3,6_11 1
x3,6_12 0
x3,6_13 0
x3,6_14 0
x3,6_16 0
x3,6_17 0
x3,6_18 0
x3,6_19 0
x3,6_24 0
x3,6_25 0
x3,6_28 0
x3,6_29 0
x3,6_30 0
x3,6_35 0
x3,6_36 0
x3,6_42 0
x3,6_49 0
x3,7_1 0
x3,7_6 0
x3,7_7 0
x3,7_10 0
x3,7_11 0
x3,7_12 0
x3,7_13 0
x3,7_14 0
x3,7_16 0
x3,7_17 0
x3,7_18 0
x3,7_19 0
x3,7_24 0
x3,7_25 0
x3,7_28 0
x3,7_29 0
x3,7_30 0
x3,7_35 0
x3,7_36 0
x3,7_42 0
x3,7_49 0
x4,5_1 0
x4,5_6 0
x4,5_7 0
x4,5_10 0
x4,5_11 0
x4,5_12 0
x4,5_13 0
x4,5_14 0
x4,5_16 0
x4,5_17 0
x4,5_18 0
x4,5_19 0
x4,5_24 0
x4,5_25 0
x4,5_28 0
x4,5_29 0
x4,5_30 0
x4,5_35 0
x4,5_36 0
x4,5_42 0
x4,5_49 0
x4,6_1 0
x4,6_6 0
x4,6_7 0
x4,6_10 0
x4,6_11 0
x4,6_12 0
x4,6_13 0
x4,6_14 0
x4,6_16 0
x4,6_17 0
x4,6_18 0
x4,6_19 0
x4,6_24 0
x4,6_25 0
x4,6_28 0
x4,6_29 0
x4,6_30 0
x4,6_35 0
x4,6_36 0
x4,6_42 0
x4,6_49 0
x4,7_1 0
x4,7_6 0
x4,7_7 0
x4,7_10 0
x4,7_11 0
x4,7_12 0
x4,7_13 0
x4,7_14 0
x4,7_16 0
x4,7_17 0
x4,7_18 0
x4,7_19 0
x4,7_24 0
x4,7_25 0
x4,7_28 0
x4,7_29 0
x4,7_30 0
x4,7_35 0
x4,7_36 0
x4,7_42 0
x4,7_49 0
x5,6_1 1
x5,6_6 0
x5,6_7 0
x5,6_10 0
x5,6_11 0
x5,6_12 0
x5,6_13 0
x5,6_14 0
x5,6_16 0
x5,6_17 0
x5,6_18 0
x5,6_19 0
x5,6_24 0
x5,6_25 0
x5,6_28 0
x5,6_29 0
x5,6_30 0
x5,6_35 0
x5,6_36 0
x5,6_42 0
x5,6_49 0
x5,7_1 0
x5,7_6 0
x5,7_7 0
x5,7_10 0
x5,7_11 0
x5,7_12 0
x5,7_13 0
x5,7_14 1
x5,7_16 0
x5,7_17 0
x5,7_18 0
x5,7_19 0
x5,7_24 0
x5,7_25 0
x5,7_28 0
x5,7_29 0
x5,7_30 0
x5,7_35 0
x5,7_36 0
x5,7_42 0
x5,7_49 0
x6,7_1 0
x6,7_6 0
x6,7_7 0
x6,7_10 0
x6,7_11 0
x6,7_12 0
x6,7_13 1
x6,7_14 0
x6,7_16 0
x6,7_17 0
x6,7_18 0
x6,7_19 0
x6,7_24 0
x6,7_25 0
x6,7_28 0
x6,7_29 0
x6,7_30 0
x6,7_35 0
x6,7_36 0
x6,7_42 0
x6,7_49 0
p0 3
p1 10
p2 22
p3 28
p4 34
p5 38
p6 39
p7 52
